222 300 179 157 199 184 192 161 182 152 161 155 167 190 152 186 150 185 180 159 174 191 155 175 198 187 191 193 190 177 178 181 176 181 189 174 164 154 159 170 157 171 176 174 185 152 185 186 161 164 169 186 180 199 160 177 159 176 194 199 152 196 154 178 177 193 177 165 171 186 186 178 181 186 177 166 188 186 176 199 200 195 158 153 167 169 154 176 195 172 174 171 168 178 173 169 195 200 184 166 186 194 168 166 179 169 156 191 154 182 164 179 176 172 182 193 165 161 193 184 183 167 154 175 169 152 194 164 151 152 154 187 196 197 178 200 166 184 190 170 166 153 199 166 176 155 184 165 166 176 200 173 167 178 199 187 180 166 175 182 193 153 193 189 200 170 188 190 179 151 160 169 155 183 185 155 188 193 170 178 194 169 176 160 172 199 171 151 164 196 157 157 173 150 170 198 195 182 187 173 183 171 166 162 154 176 167 166 168 188 169 186 181 195 197 152 193 167 179 181 188 186 162 185 